1.000000 1.000000 1.000000
5
5 2 3 4 5 6 
5 7 8 9 10 11 
5 12 13 14 15 16 
5 17 18 19 20 21 
5 22 23 24 25 26 
1 1 
1 2 
1 2 
1 2 
1 2 
1 2 
1 2 
1 2 
1 2 
1 2 
1 2 
1 2 
1 2 
1 3 
1 3 
1 3 
1 3 
1 3 
1 3 
1 3 
1 3 
1 3 
1 3 
1 3 
1 3 
1 3 
1 3 
1 3 
1 3 
1 3 
1 3 
1 3 
1 3 
1 3 
1 3 
1 3 
1 3 
1 3 
1 3 
1 3 
1 3 
1 3 
1 3 
1 3 
1 3 
1 3 
1 3 
1 3 
1 3 
1 3 
1 3 
1 3 
1 3 
1 3 
1 3 
1 3 
1 3 
1 3 
1 3 
1 3 
1 3 
1 3 
1 3 
1 3 
1 3 
1 4 
1 4 
1 4 
1 4 
1 4 
1 4 
1 4 
1 4 
1 4 
1 4 
1 4 
1 4 
1 4 
1 4 
1 4 
1 4 
1 4 
1 4 
1 4 
1 4 
1 4 
1 4 
1 4 
1 4 
1 4 
1 4 
1 4 
1 4 
1 4 
1 4 
1 4 
1 4 
1 4 
1 4 
1 4 
1 4 
1 4 
1 4 
1 4 
1 4 
1 4 
1 4 
1 4 
1 4 
1 4 
1 4 
1 4 
1 4 
1 4 
1 4 
1 4 
1 4 
1 5 
1 5 
1 5 
1 5 
1 5 
1 5 
1 5 
1 5 
1 5 
1 5 
1 5 
1 5 
1 5 
1 5 
1 5 
1 5 
1 5 
1 5 
1 5 
1 5 
1 5 
1 5 
1 5 
1 5 
1 5 
1 5 
1 5 
1 5 
1 5 
1 5 
1 5 
1 5 
1 5 
1 5 
1 5 
1 5 
1 5 
1 5 
1 5 
1 5 
1 5 
1 5 
1 5 
1 5 
1 5 
1 5 
1 5 
1 5 
1 5 
1 5 
1 5 
1 5 
1 6 
1 6 
1 6 
1 6 
2 6 4 
1 6 
2 6 4 
2 6 4 
2 6 4 
2 6 4 
2 6 4 
2 6 4 
2 6 4 
2 6 4 
2 6 4 
2 6 4 
2 6 4 
2 6 4 
2 6 4 
2 6 4 
2 6 4 
2 6 4 
2 6 4 
2 6 4 
2 6 4 
2 6 4 
2 6 4 
2 6 4 
2 6 4 
2 6 4 
2 6 4 
2 6 4 
2 6 4 
2 6 4 
2 6 4 
2 6 4 
2 6 4 
2 6 4 
2 6 4 
2 6 4 
2 6 4 
2 6 4 
2 6 4 
2 6 4 
2 6 4 
2 6 4 
2 6 4 
2 6 4 
2 6 4 
2 6 4 
2 6 4 
2 6 4 
1 7 
1 7 
1 7 
1 7 
1 7 
1 7 
1 7 
1 7 
1 7 
1 7 
1 7 
1 7 
1 8 
1 8 
1 8 
1 8 
1 8 
1 8 
1 8 
1 8 
1 8 
1 8 
1 8 
1 8 
1 8 
1 8 
1 8 
1 8 
1 8 
1 8 
1 8 
1 8 
1 8 
1 8 
1 8 
1 8 
1 8 
1 8 
1 8 
1 8 
1 8 
1 8 
1 8 
1 8 
1 8 
1 8 
1 8 
1 8 
1 8 
1 8 
1 8 
1 8 
1 8 
1 8 
1 9 
1 9 
1 9 
1 9 
1 9 
1 9 
1 9 
1 9 
1 9 
1 9 
1 9 
1 9 
1 9 
1 9 
1 9 
1 9 
1 9 
1 9 
1 9 
1 9 
1 9 
1 9 
1 9 
1 9 
1 9 
1 9 
1 9 
1 9 
2 9 8 
2 9 8 
1 9 
2 9 8 
2 9 8 
2 9 8 
2 9 8 
2 9 8 
1 9 
1 9 
1 9 
1 9 
1 9 
2 9 8 
1 10 
1 10 
1 10 
1 10 
1 10 
1 10 
1 10 
1 10 
1 10 
1 10 
1 10 
1 10 
1 10 
1 10 
1 10 
1 10 
1 10 
1 10 
1 10 
1 10 
1 10 
1 10 
1 10 
1 10 
1 10 
1 10 
1 10 
1 10 
1 10 
1 10 
1 10 
1 10 
1 10 
1 10 
1 10 
1 10 
1 10 
1 10 
1 10 
1 10 
1 10 
1 10 
1 11 
1 11 
1 11 
1 11 
1 11 
1 11 
1 11 
1 11 
1 11 
1 11 
1 11 
1 11 
1 11 
1 11 
1 11 
1 11 
1 11 
1 11 
1 11 
1 11 
1 11 
1 11 
1 11 
1 11 
1 11 
1 11 
1 11 
1 11 
1 11 
1 11 
1 11 
1 11 
1 11 
1 11 
1 11 
1 11 
1 11 
1 11 
1 11 
1 11 
1 11 
1 11 
1 12 
2 12 11 
2 12 11 
2 12 11 
2 12 11 
2 12 11 
2 12 11 
2 12 11 
2 12 11 
2 12 11 
2 12 11 
2 12 11 
2 12 11 
2 12 11 
2 12 11 
2 12 11 
2 12 11 
2 12 11 
2 12 11 
2 12 11 
2 12 11 
2 12 11 
2 12 11 
2 12 11 
2 12 11 
2 12 11 
2 12 11 
2 12 11 
2 12 11 
2 12 11 
2 12 11 
2 12 11 
1 13 
1 13 
1 13 
3 13 12 11 
3 13 12 11 
3 13 12 11 
4 13 9 12 11 
4 13 9 12 11 
4 13 9 12 11 
4 13 9 12 11 
4 13 9 12 11 
4 13 9 12 11 
4 13 9 12 11 
4 13 9 12 11 
4 13 9 12 11 
4 13 9 12 11 
4 13 9 12 11 
4 13 9 12 11 
4 13 9 12 11 
4 13 9 12 11 
4 13 9 12 11 
4 13 9 12 11 
4 13 9 12 11 
4 13 9 12 11 
4 13 9 12 11 
4 13 9 12 11 
4 13 9 12 11 
4 13 9 12 11 
4 13 9 12 11 
3 13 12 11 
1 13 
4 13 9 12 11 
1 14 
1 14 
1 14 
1 14 
1 14 
1 14 
1 14 
1 14 
1 14 
1 14 
1 14 
1 14 
1 14 
1 14 
1 14 
1 14 
1 14 
1 14 
1 14 
1 14 
1 14 
1 14 
1 14 
1 14 
1 14 
1 14 
3 14 6 4 
3 14 6 4 
1 14 
1 14 
1 14 
3 14 6 4 
1 15 
1 15 
1 15 
1 15 
1 15 
1 15 
1 15 
1 15 
1 15 
1 15 
1 15 
1 15 
1 16 
1 16 
1 16 
1 16 
1 16 
1 16 
1 16 
1 16 
1 16 
1 16 
1 16 
1 16 
1 16 
1 16 
1 16 
1 16 
1 16 
1 16 
1 16 
1 16 
1 16 
1 16 
1 16 
1 16 
1 16 
1 16 
2 16 5 
1 16 
1 16 
1 16 
1 16 
2 16 5 
1 17 
1 17 
1 17 
1 17 
1 17 
1 17 
1 17 
1 17 
1 17 
1 17 
2 17 15 
2 17 15 
2 17 15 
2 17 15 
1 17 
2 17 15 
2 17 15 
1 17 
2 17 15 
2 17 15 
2 17 15 
2 17 15 
1 18 
1 18 
1 18 
1 18 
1 18 
1 18 
1 18 
1 18 
1 18 
1 18 
1 18 
1 18 
1 18 
1 18 
1 18 
1 18 
1 18 
1 18 
1 18 
1 18 
1 18 
1 18 
1 19 
1 19 
1 19 
1 19 
1 19 
1 19 
1 19 
1 19 
1 19 
1 19 
1 19 
1 19 
2 19 10 
2 19 10 
1 19 
2 19 10 
2 19 10 
2 19 10 
1 19 
1 19 
1 19 
2 19 10 
1 20 
1 20 
1 20 
1 20 
1 20 
1 20 
1 20 
1 20 
1 20 
1 20 
1 20 
1 20 
1 20 
1 20 
1 20 
1 20 
1 20 
1 20 
1 20 
1 20 
1 20 
1 20 
1 21 
1 21 
1 21 
1 21 
1 21 
4 21 13 12 11 
4 21 13 12 11 
4 21 13 12 11 
4 21 13 12 11 
1 21 
1 21 
4 21 13 12 11 
1 22 
1 22 
1 22 
1 22 
2 22 16 
2 22 16 
1 22 
2 22 16 
2 22 16 
2 22 16 
2 22 16 
2 22 16 
1 23 
1 23 
1 23 
2 23 14 
2 23 14 
3 23 2 14 
3 23 14 22 
4 23 2 14 22 
4 23 2 14 22 
4 23 2 14 22 
5 23 2 14 20 22 
5 23 2 14 20 22 
1 24 
1 24 
4 24 3 17 15 
4 24 3 17 15 
8 24 3 17 15 21 13 12 11 
8 24 3 17 15 21 13 12 11 
1 24 
8 24 3 17 15 21 13 12 11 
9 24 3 17 15 18 21 13 12 11 
9 24 3 17 15 19 21 13 12 11 
4 24 3 17 15 
10 24 3 17 15 18 19 21 13 12 11 
1 25 
1 25 
1 25 
2 25 24 
1 25 
2 25 24 
2 25 23 
2 25 24 
3 25 23 24 
3 25 23 24 
3 25 23 24 
3 25 23 24 
1 26 
1 26 
3 26 25 24 
1 26 
3 26 25 24 
3 26 25 24 
3 26 25 24 
3 26 25 24 
4 26 7 25 24 
4 26 7 25 24 
4 26 7 25 24 
4 26 7 25 24 
1 1 
